GLPSOL: GLPK LP/MIP Solver, v4.65
Parameter(s) specified in the command line:
 --model solver_drone.mod --data solver_drone_data_20.dat --output solver_drone_solution_20_10.log
 --log solver_drone_cmd_output_20_10.log --tmlim 60
Reading model section from solver_drone.mod...
41 lines were read
Reading data section from solver_drone_data_20.dat...
59 lines were read
Generating f...
Generating package_deliverd_once...
Generating package_well_delivered...
Generating time_spent_flying...
Generating autonomy_not_exceeded...
Generating check_time_max...
Model has been successfully generated
GLPK Integer Optimizer, v4.65
5745 rows, 5681 columns, 17311 non-zeros
5681 integer variables, 5670 of which are binary
Preprocessing...
74 rows, 5681 columns, 11640 non-zeros
5681 integer variables, 5670 of which are binary
Scaling...
 A: min|aij| =  1.000e+00  max|aij| =  2.856e+03  ratio =  2.856e+03
GM: min|aij| =  4.803e-01  max|aij| =  2.082e+00  ratio =  4.335e+00
EQ: min|aij| =  2.307e-01  max|aij| =  1.000e+00  ratio =  4.335e+00
2N: min|aij| =  1.250e-01  max|aij| =  1.180e+00  ratio =  9.438e+00
Constructing initial basis...
Size of triangular part is 74
Solving LP relaxation...
GLPK Simplex Optimizer, v4.65
74 rows, 5681 columns, 11640 non-zeros
      0: obj =   0.000000000e+00 inf =   1.152e+03 (1)
    100: obj =   3.687200000e+03 inf =   1.499e-13 (0)
*   127: obj =   3.687200000e+03 inf =   1.404e-13 (0)
OPTIMAL LP SOLUTION FOUND
Integer optimization begins...
Long-step dual simplex will be used
+   127: mip =     not found yet >=              -inf        (1; 0)
+  2251: >>>>>   4.928000000e+03 >=   3.688000000e+03  25.2% (88; 0)
+  3453: >>>>>   4.504000000e+03 >=   3.688000000e+03  18.1% (146; 30)
+  4742: >>>>>   4.496000000e+03 >=   3.688000000e+03  18.0% (155; 99)
+  5477: >>>>>   4.064000000e+03 >=   3.688000000e+03   9.3% (208; 107)
+  7190: >>>>>   4.008000000e+03 >=   3.688000000e+03   8.0% (266; 218)
+ 10440: >>>>>   3.936000000e+03 >=   3.688000000e+03   6.3% (417; 231)
+ 11741: >>>>>   3.832000000e+03 >=   3.688000000e+03   3.8% (418; 382)
+ 29025: mip =   3.832000000e+03 >=   3.688000000e+03   3.8% (1359; 738)
+ 46643: mip =   3.832000000e+03 >=   3.688000000e+03   3.8% (2342; 791)
+ 55889: >>>>>   3.824000000e+03 >=   3.688000000e+03   3.6% (2940; 826)
+ 67894: >>>>>   3.792000000e+03 >=   3.688000000e+03   2.7% (3514; 1235)
+ 86130: mip =   3.792000000e+03 >=   3.688000000e+03   2.7% (3437; 3162)
+105640: mip =   3.792000000e+03 >=   3.688000000e+03   2.7% (4328; 3224)
+121719: mip =   3.792000000e+03 >=   3.688000000e+03   2.7% (5207; 3305)
+138032: mip =   3.792000000e+03 >=   3.688000000e+03   2.7% (6079; 3385)
+152975: >>>>>   3.776000000e+03 >=   3.688000000e+03   2.3% (6858; 3452)
+170465: mip =   3.776000000e+03 >=   3.688000000e+03   2.3% (6888; 4879)
+185916: mip =   3.776000000e+03 >=   3.688000000e+03   2.3% (7746; 4978)
+200675: mip =   3.776000000e+03 >=   3.688000000e+03   2.3% (8641; 5077)
Time used: 60.0 secs.  Memory used: 95.1 Mb.
+204097: mip =   3.776000000e+03 >=   3.688000000e+03   2.3% (8800; 5098)
TIME LIMIT EXCEEDED; SEARCH TERMINATED
Time used:   60.0 secs
Memory used: 95.4 Mb (100005454 bytes)
The package 1 is delivered by the drone 1 to the house 2
The package 2 is delivered by the drone 3 to the house 2
The package 3 is delivered by the drone 8 to the house 4
The package 4 is delivered by the drone 6 to the house 4
The package 5 is delivered by the drone 8 to the house 4
The package 6 is delivered by the drone 8 to the house 5
The package 7 is delivered by the drone 4 to the house 6
The package 8 is delivered by the drone 4 to the house 6
The package 9 is delivered by the drone 5 to the house 6
The package 10 is delivered by the drone 2 to the house 8
The package 11 is delivered by the drone 4 to the house 8
The package 12 is delivered by the drone 10 to the house 8
The package 13 is delivered by the drone 4 to the house 9
The package 14 is delivered by the drone 5 to the house 9
The package 15 is delivered by the drone 1 to the house 10
The package 16 is delivered by the drone 6 to the house 10
The package 17 is delivered by the drone 9 to the house 11
The package 18 is delivered by the drone 7 to the house 12
The package 19 is delivered by the drone 5 to the house 15
The package 20 is delivered by the drone 1 to the house 16
The package 21 is delivered by the drone 7 to the house 16
The package 22 is delivered by the drone 6 to the house 18
The package 23 is delivered by the drone 3 to the house 18
The package 24 is delivered by the drone 9 to the house 20
The package 25 is delivered by the drone 7 to the house 20
The package 26 is delivered by the drone 10 to the house 21
The package 27 is delivered by the drone 2 to the house 21
Model has been successfully processed
Writing MIP solution to 'solver_drone_solution_20_10.log'...
